NAME : ClusterId_1018 
COMMENT : (Gillet and Johnson) 
TYPE : CVRP 
DIMENSION : 26 
EDGE_WEIGHT_TYPE : EUC_2D 
CAPACITY : 500 
NODE_COORD_SECTION 
1018 3493 8214 
912 4137 9024 
787 2570 8091 
207 2654 7998 
886 4124 8558 
11 3422 8241 
612 2858 7940 
953 3702 8305 
462 3655 8191 
286 2626 7604 
703 3235 7829 
722 3526 7923 
769 3138 7709 
809 2477 7233 
19 3780 7880 
430 3886 7906 
715 2358 6970 
488 3797 7693 
45 3339 7392 
77 2531 6931 
83 3252 7216 
537 3419 7143 
366 3475 6954 
373 8501 9992 
168 8409 9834 
457 8645 9847 
DEMAND_SECTION 
1018 1017
912 29
787 43
207 51
886 39
11 35
612 26
953 55
462 54
286 30
703 35
722 29
769 37
809 42
19 38
430 32
715 50
488 38
45 32
77 35
83 46
537 44
366 30
373 52
168 42
457 56
DEPOT_SECTION 
1018
 -1
EOF